80
940
4
45
19
25
37
0 4
0 8
0 13
0 14
0 15
0 22
0 26
0 28
0 30
0 33
0 34
0 35
0 41
0 47
0 51
0 52
0 58
0 72
1 4
1 6
1 7
1 10
1 11
1 15
1 16
1 17
1 21
1 33
1 38
1 51
1 53
1 54
1 63
1 68
1 69
1 72
1 79
2 6
2 14
2 15
2 16
2 22
2 23
2 29
2 34
2 38
2 41
2 42
2 44
2 46
2 47
2 49
2 52
2 55
2 56
2 66
2 68
2 72
2 78
3 5
3 7
3 10
3 12
3 13
3 16
3 19
3 21
3 29
3 36
3 39
3 40
3 45
3 46
3 48
3 54
3 56
3 60
3 64
3 70
3 71
3 72
3 75
3 76
4 8
4 11
4 12
4 14
4 15
4 22
4 30
4 31
4 35
4 39
4 42
4 49
4 56
4 57
4 58
4 60
4 63
4 64
4 65
4 66
4 67
4 73
5 8
5 9
5 11
5 14
5 15
5 18
5 19
5 21
5 27
5 29
5 30
5 32
5 33
5 34
5 37
5 42
5 44
5 46
5 47
5 55
5 57
5 60
5 68
5 72
5 75
6 12
6 15
6 26
6 29
6 31
6 33
6 42
6 58
6 63
6 65
6 68
6 73
6 74
6 79
7 13
7 14
7 23
7 24
7 28
7 30
7 31
7 32
7 33
7 34
7 40
7 43
7 46
7 47
7 56
7 61
7 62
7 63
7 65
7 66
7 68
7 73
8 13
8 14
8 17
8 19
8 20
8 28
8 31
8 34
8 36
8 42
8 44
8 51
8 53
8 56
8 59
8 61
8 62
8 65
8 70
8 73
8 77
8 79
9 12
9 13
9 14
9 15
9 19
9 20
9 23
9 25
9 27
9 39
9 43
9 44
9 45
9 47
9 48
9 50
9 52
9 53
9 56
9 59
9 60
9 62
9 65
9 67
9 71
9 73
9 75
10 12
10 13
10 14
10 19
10 20
10 21
10 22
10 25
10 29
10 40
10 41
10 43
10 44
10 46
10 49
10 53
10 55
10 58
10 64
10 71
10 77
10 79
11 12
11 18
11 21
11 23
11 27
11 35
11 41
11 44
11 45
11 46
11 51
11 52
11 58
11 62
11 64
11 70
11 71
12 15
12 24
12 27
12 31
12 32
12 34
12 35
12 37
12 38
12 43
12 45
12 47
12 50
12 51
12 57
12 60
12 72
12 74
12 77
13 16
13 23
13 26
13 29
13 35
13 37
13 39
13 41
13 45
13 51
13 56
13 59
13 63
13 67
13 75
13 79
14 19
14 22
14 24
14 26
14 27
14 30
14 33
14 35
14 37
14 38
14 40
14 44
14 45
14 49
14 50
14 57
14 59
14 61
14 62
14 64
14 65
14 67
14 76
14 77
14 78
15 27
15 30
15 39
15 40
15 41
15 42
15 44
15 46
15 50
15 53
15 61
15 65
15 69
15 73
15 75
16 19
16 23
16 25
16 29
16 32
16 36
16 39
16 50
16 51
16 56
16 61
16 63
16 67
16 71
16 73
16 78
16 79
17 18
17 24
17 27
17 28
17 34
17 38
17 40
17 41
17 42
17 46
17 47
17 49
17 53
17 55
17 57
17 63
17 65
17 66
17 68
17 74
17 76
18 25
18 30
18 33
18 36
18 41
18 43
18 47
18 48
18 55
18 56
18 61
18 69
18 70
18 72
18 77
19 23
19 24
19 26
19 27
19 29
19 30
19 31
19 33
19 35
19 37
19 39
19 40
19 42
19 49
19 51
19 52
19 54
19 55
19 57
19 58
19 61
19 64
19 67
19 70
19 76
20 22
20 31
20 34
20 36
20 37
20 41
20 52
20 53
20 54
20 55
20 59
20 61
20 62
20 63
20 64
20 66
20 68
20 69
20 70
20 71
20 72
20 75
20 78
21 22
21 24
21 26
21 28
21 29
21 35
21 41
21 42
21 46
21 48
21 55
21 59
21 62
21 63
21 65
21 66
21 67
21 70
21 75
22 37
22 40
22 50
22 51
22 53
22 61
22 65
22 67
22 69
22 70
23 25
23 39
23 41
23 43
23 45
23 46
23 47
23 51
23 52
23 53
23 55
23 56
23 60
23 63
23 77
23 79
24 28
24 32
24 33
24 35
24 40
24 41
24 45
24 47
24 51
24 52
24 55
24 57
24 62
24 63
24 64
24 67
24 72
24 74
25 29
25 36
25 38
25 41
25 46
25 48
25 52
25 58
25 63
25 65
25 72
25 79
26 35
26 47
26 48
26 51
26 52
26 54
26 57
26 65
26 69
26 71
26 76
26 79
27 29
27 34
27 35
27 36
27 37
27 39
27 40
27 41
27 42
27 43
27 46
27 49
27 50
27 52
27 55
27 56
27 64
27 68
27 74
28 30
28 34
28 37
28 44
28 45
28 51
28 52
28 58
28 60
28 62
28 66
28 68
28 69
28 77
29 32
29 33
29 34
29 36
29 40
29 41
29 42
29 47
29 50
29 53
29 55
29 58
29 60
29 65
29 67
29 68
29 70
29 71
29 72
29 73
30 34
30 36
30 39
30 41
30 52
30 57
30 58
30 61
30 65
30 66
30 67
30 68
30 70
30 71
30 72
30 74
31 32
31 33
31 35
31 40
31 43
31 45
31 46
31 49
31 50
31 56
31 58
31 61
31 62
31 65
31 67
31 68
31 69
31 75
32 33
32 36
32 40
32 41
32 42
32 43
32 49
32 51
32 55
32 62
32 63
32 69
32 70
32 71
33 35
33 40
33 42
33 46
33 48
33 50
33 51
33 54
33 58
33 59
33 65
33 66
33 73
33 74
33 77
33 78
34 35
34 36
34 38
34 45
34 48
34 52
34 57
34 59
34 60
34 61
34 63
34 64
34 65
35 47
35 50
35 52
35 57
35 59
35 63
35 64
35 65
35 66
35 67
35 68
35 74
35 77
35 78
36 37
36 40
36 41
36 47
36 48
36 51
36 57
36 62
36 66
36 68
36 69
36 71
36 72
36 73
36 75
36 78
37 39
37 45
37 46
37 49
37 50
37 51
37 57
37 58
37 61
37 65
37 71
37 74
37 75
38 42
38 43
38 44
38 48
38 49
38 51
38 57
38 61
38 62
38 64
38 72
38 78
39 40
39 42
39 45
39 48
39 53
39 54
39 58
39 61
39 68
39 74
39 78
39 79
40 44
40 49
40 52
40 60
40 64
40 71
40 73
40 74
40 75
41 42
41 52
41 53
41 56
41 58
41 62
41 65
41 67
41 70
41 72
41 79
42 44
42 48
42 52
42 55
42 57
42 58
42 59
42 65
42 70
43 45
43 47
43 48
43 49
43 50
43 51
43 54
43 57
43 63
43 64
43 66
43 79
44 45
44 47
44 53
44 60
44 75
44 77
45 49
45 50
45 55
45 56
45 63
45 64
45 65
45 68
45 70
45 72
45 73
45 75
46 48
46 52
46 57
46 68
46 71
46 76
46 79
47 51
47 55
47 58
47 61
47 62
47 67
47 77
47 78
47 79
48 50
48 58
48 60
48 65
48 66
48 68
48 71
48 72
48 79
49 51
49 54
49 55
49 57
49 63
49 71
49 72
49 73
49 74
49 75
49 76
49 78
50 60
50 61
50 62
50 63
50 67
50 71
50 72
50 73
50 74
50 76
50 77
50 78
51 53
51 55
51 59
51 66
51 72
51 77
52 53
52 54
52 56
52 62
52 66
52 75
52 77
53 56
53 59
53 60
53 63
53 69
53 70
53 71
53 72
53 73
53 74
53 75
53 78
54 55
54 63
54 78
55 59
55 60
55 62
55 64
55 67
55 68
55 70
55 76
55 77
55 79
56 57
56 71
56 77
56 79
57 58
57 63
57 64
57 65
57 68
57 76
57 77
57 79
58 59
58 60
58 64
58 65
58 68
58 71
58 73
58 79
59 62
59 63
59 74
59 76
60 63
60 65
60 66
60 68
60 69
60 72
60 73
60 78
60 79
61 63
61 68
61 71
62 65
62 68
62 71
62 72
62 74
62 75
62 77
62 78
63 66
63 77
64 65
64 69
64 74
64 75
65 66
65 70
65 73
66 72
66 77
66 78
66 79
67 70
67 72
67 73
67 74
67 77
67 79
68 77
69 73
69 77
70 75
70 77
71 75
71 76
72 73
72 75
72 76
72 79
73 79
74 75
74 78
74 79
75 77
77 79
15 21 6 63 67 10 5 16 0 79 44 75 72 2 20 43 54 45 41 59 8 56 48 24
74 57 32 18 58 35 34 33 19 3 31 36 62 11 49 1 40 23 68 60 17 52 12 28
7 30 53 42 73 77 71 47 25 61 22 55 64 29 27 13 46 4 37 70 14 51 9 76
65 69 38 26 50 39 66 78
